10,20,2,286
0,30,76,77,50,81,40,79,93,177,
30,0,46,47,20,51,10,49,63,147,
76,46,0,1,29,60,56,90,99,183,
77,47,1,0,28,59,57,90,100,184,
50,20,29,28,0,31,30,69,83,167,
81,51,60,59,31,0,61,85,71,155,
40,10,56,57,30,61,0,39,53,137,
79,49,90,90,69,85,39,0,14,98,
93,63,99,100,83,71,53,14,0,84,
177,147,183,184,167,155,137,98,84,0,
